
  32    1
  10

   0   0   7 2 3 4 5 6 7 9 
   8  10   7 31 20 15 12 11 10 8 
   2   4   6 31 20 15 11 10 8 
   6  10   5 31 20 15 10 8 
   4  10   4 20 11 10 8 
   2   5   6 31 23 20 19 13 10 
   7   7   4 31 18 13 11 
   9   7   5 23 22 19 14 13 
   3   8   6 30 22 19 18 16 14 
   8  10   5 30 22 21 18 14 
   6   7   5 30 23 21 16 14 
   5   7   5 30 22 21 17 16 
   9  10   3 21 17 16 
   8   5   5 29 27 26 25 24 
   4   9   4 28 27 25 23 
   1  10   3 29 28 27 
   5  10   3 26 25 24 
   8  10   3 29 27 24 
   4   6   2 26 21 
   7  10   2 26 24 
   1   5   1 25 
   6   3   1 28 
   4  10   1 24 
   3  10   1 32
   1  10   1 32
   6   6   1 32
   4  10   1 32
   9   6   1 32
   8   6   1 32
   1  10   1 32
   7   9   1 32
   0   0   0 
